c
c start with comments
c
p cnf 28 20
-27 21 16 0
22 26 -28 -3 19 0
14 18 -12 13 10 0
19 27 -2 21 0
22 24 18 27 18 0
26 26 -9 -5 0
10 -28 -9 0
7 8 0
23 4 -19 0
4 -11 22 27 -25 0
-10 2 0
-1 -21 0
-14 29 -20 0
-4 -24 0
17 1 1 0
-12 3 -28 0
11 16 10 29 0
27 24 12 -15 0
14 11 -12 9 -20 0
28 -17 0